5 5
0 37 3 54 4 85 1 14 2 95
0 55 1 48 3 82 4 7 2 74
2 7 1 33 4 23 0 85 3 19
2 19 3 36 4 29 1 60 0 82
0 2 4 1 1 47 3 69 2 20
-1
0 3 5
0 2 5
0 2 3 5
0 3 4 5
0 3 5
-2
227 437
134 384
43 94 265
118 203 337
64 144

367 7
0 20 5 13 19
11 22 6 3 18
10 15 24 4 9
1 23 16 7 14
21 12 2 17 8
